========================================================== 
File name: C:\DEGR\assets\definitions\MSRCPSP_Gen\200_20_64_10_B.def
Creation date: Wed May 03 10:47:23 CEST 2023
Website: http://imopse.ii.pwr.edu.pl/ 
Reference: 
Myszkowski P. B., Skowronski M. E., Olech L., Oslizlo K., 
Hybrid Ant Colony Optimization in solving Multi-Skill Resource-Constrained Project Scheduling Problem, 
Soft Computing, DOI: DOI 10.1007/s00500-014-1455-x 
========================================================== 
General characteristics: 
Tasks: 200
Resources: 20
Precedence relations: 64
Number of skill types: 10
========================================================== 
ResourceID 	 Salary 	 Skills 
1	 	 	38.4	 	 Q0: 3 	  Q1: 1 	  Q4: 1 	  Q7: 2 	 
2	 	 	13.4	 	 Q1: 0 	 
3	 	 	96.6	 	 Q6: 2 	 
4	 	 	48.7	 	 Q5: 2 	  Q8: 1 	  Q4: 0 	  Q0: 2 	  Q3: 1 	 
5	 	 	84.3	 	 Q0: 0 	  Q2: 0 	  Q9: 3 	 
6	 	 	56.4	 	 Q5: 3 	  Q1: 1 	  Q3: 1 	  Q8: 0 	  Q7: 2 	 
7	 	 	75.4	 	 Q9: 1 	  Q2: 2 	  Q7: 1 	  Q4: 2 	  Q1: 1 	  Q5: 0 	 
8	 	 	14.1	 	 Q4: 0 	  Q2: 2 	  Q8: 1 	  Q7: 3 	  Q6: 2 	  Q9: 3 	  Q1: 0 	  Q3: 3 	  Q5: 2 	 
9	 	 	55.1	 	 Q5: 0 	  Q4: 2 	  Q0: 2 	  Q9: 3 	  Q8: 2 	  Q2: 3 	  Q1: 0 	  Q7: 3 	 
10	 	 	30.6	 	 Q2: 3 	  Q9: 1 	  Q1: 0 	  Q8: 3 	 
11	 	 	72.2	 	 Q1: 1 	  Q4: 3 	  Q8: 2 	  Q7: 3 	 
12	 	 	61.5	 	 Q7: 2 	  Q4: 2 	 
13	 	 	67.0	 	 Q4: 2 	  Q5: 1 	  Q2: 3 	  Q7: 3 	  Q0: 1 	  Q6: 2 	 
14	 	 	95.9	 	 Q1: 0 	  Q6: 3 	  Q3: 2 	 
15	 	 	81.7	 	 Q8: 1 	  Q5: 1 	  Q4: 1 	 
16	 	 	81.7	 	 Q9: 3 	  Q4: 3 	  Q5: 1 	  Q0: 2 	  Q8: 2 	 
17	 	 	71.3	 	 Q6: 2 	 
18	 	 	55.6	 	 Q5: 3 	  Q7: 2 	  Q9: 3 	  Q4: 0 	  Q2: 3 	  Q6: 0 	  Q1: 0 	  Q3: 1 	  Q0: 2 	 
19	 	 	43.0	 	 Q0: 3 	  Q9: 1 	  Q5: 1 	  Q7: 1 	 
20	 	 	50.6	 	 Q7: 2 	  Q5: 1 	  Q9: 2 	  Q8: 3 	  Q4: 1 	  Q1: 1 	 
========================================================== 
TaskID 	 Duration 	 Skill 	 Predecessor IDs 
1	40	Q4:	2
2	31	Q0:	1
3	19	Q4:	2
4	10	Q1:	1
5	11	Q7:	3
6	34	Q4:	1
7	23	Q5:	0
8	25	Q3:	3
9	17	Q8:	0
10	40	Q3:	2
11	23	Q0:	0
12	16	Q9:	1
13	34	Q9:	1
14	17	Q8:	0	8
15	34	Q6:	0
16	32	Q0:	0
17	15	Q4:	0
18	30	Q0:	1
19	12	Q0:	1
20	10	Q7:	3
21	27	Q7:	1
22	25	Q2:	2	12
23	22	Q7:	3
24	21	Q8:	1
25	27	Q1:	1
26	20	Q2:	3
27	10	Q6:	3
28	17	Q5:	3
29	28	Q3:	2
30	15	Q0:	2
31	21	Q6:	0
32	24	Q3:	1
33	21	Q6:	0	26
34	11	Q6:	2
35	30	Q0:	0
36	11	Q0:	1
37	9	Q2:	2
38	14	Q8:	3
39	11	Q4:	0
40	24	Q9:	2
41	33	Q4:	0
42	29	Q9:	3
43	12	Q0:	1
44	10	Q4:	2
45	31	Q4:	2	36
46	32	Q6:	0
47	39	Q9:	1
48	21	Q9:	1
49	34	Q1:	1
50	23	Q3:	1
51	19	Q9:	2
52	15	Q8:	0
53	31	Q8:	0
54	25	Q5:	2
55	8	Q9:	1
56	24	Q5:	0
57	21	Q1:	1
58	18	Q0:	0
59	26	Q8:	0
60	39	Q0:	1
61	29	Q8:	0	57
62	38	Q8:	3
63	28	Q4:	1
64	36	Q4:	0
65	25	Q7:	1	19
66	16	Q8:	0
67	11	Q8:	3
68	40	Q7:	1	43
69	20	Q7:	3
70	22	Q5:	1
71	12	Q4:	1
72	37	Q9:	1	64	69
73	25	Q4:	3
74	39	Q7:	1
75	19	Q0:	1	66
76	35	Q2:	2
77	18	Q1:	0
78	35	Q0:	0
79	15	Q4:	2	51
80	11	Q5:	3
81	29	Q5:	1
82	15	Q3:	3	63	19
83	24	Q4:	2	24
84	19	Q7:	2
85	30	Q5:	2
86	31	Q2:	2	17
87	38	Q4:	2	31
88	24	Q7:	3
89	20	Q4:	0
90	40	Q0:	2
91	29	Q4:	3
92	13	Q2:	2	40	58
93	34	Q9:	1
94	26	Q6:	0
95	13	Q3:	3
96	35	Q9:	3
97	34	Q6:	3
98	32	Q0:	0
99	22	Q7:	1
100	16	Q6:	2
101	36	Q9:	1
102	39	Q5:	0
103	23	Q8:	2
104	32	Q4:	1
105	36	Q3:	3	49
106	28	Q2:	3
107	11	Q8:	2	29
108	11	Q7:	3
109	26	Q5:	2
110	18	Q1:	1
111	37	Q3:	3	69
112	26	Q4:	2
113	12	Q2:	3
114	39	Q4:	2
115	15	Q6:	3
116	34	Q4:	3
117	33	Q0:	3	11
118	33	Q8:	3
119	22	Q1:	1
120	15	Q0:	1
121	28	Q2:	2	41
122	33	Q0:	0
123	26	Q4:	3
124	21	Q4:	3	50
125	19	Q8:	1
126	20	Q7:	3
127	18	Q5:	2	63
128	30	Q9:	2	63
129	28	Q4:	1
130	32	Q2:	3	65
131	26	Q9:	2	20	103	112
132	10	Q4:	2	27
133	9	Q6:	3
134	16	Q9:	1
135	18	Q0:	3
136	33	Q7:	3
137	36	Q6:	3
138	23	Q6:	0	89
139	17	Q5:	0
140	15	Q0:	3
141	26	Q4:	1
142	11	Q2:	0
143	23	Q3:	1
144	14	Q0:	0	36
145	11	Q0:	0
146	38	Q7:	3
147	15	Q0:	0
148	21	Q0:	3
149	39	Q5:	2
150	30	Q5:	0
151	21	Q8:	0	75	44
152	11	Q8:	3	125
153	39	Q4:	0
154	10	Q5:	0
155	21	Q3:	3	85
156	28	Q7:	1
157	17	Q4:	0
158	12	Q9:	2
159	32	Q0:	0	102
160	12	Q9:	3
161	17	Q0:	3	30
162	39	Q0:	2
163	33	Q8:	2	108
164	22	Q3:	1	80
165	15	Q6:	3
166	28	Q3:	3
167	39	Q6:	2	129	109
168	31	Q1:	1	138
169	23	Q8:	3
170	37	Q3:	1
171	35	Q0:	2
172	11	Q9:	2
173	31	Q6:	2	160
174	21	Q2:	2
175	10	Q1:	1	82
176	35	Q7:	3	80	110
177	34	Q7:	2
178	35	Q9:	2
179	33	Q8:	2	30	20
180	26	Q4:	0
181	17	Q3:	1	113
182	18	Q7:	2
183	18	Q4:	0
184	24	Q2:	3	137
185	14	Q5:	3	64	98	99
186	39	Q1:	0
187	28	Q3:	3	178
188	34	Q9:	2
189	22	Q8:	0	2	147
190	21	Q5:	3	43
191	21	Q5:	1
192	9	Q4:	0	9
193	13	Q1:	0	177
194	34	Q9:	2
195	37	Q0:	3	79
196	16	Q0:	0	186
197	35	Q9:	1	78
198	14	Q3:	1
199	34	Q8:	1
200	32	Q4:	3
========================================================== 